15
2 0 2
3 1 4
3 2 3
5 4 5
6 1 5
6 2 3
6 3 4
6 4 4
7 1 5
7 2 2
7 4 4
7 5 2
7 6 4
8 1 2
8 3 4
8 4 5
8 7 2
9 0 3
9 1 1
9 3 5
9 4 3
9 5 1
9 7 1
10 1 2
10 3 5
10 4 1
10 9 3
11 5 5
11 7 3
11 9 4
11 10 1
12 0 5
12 1 2
12 3 2
12 4 1
12 6 3
12 7 2
12 10 1
12 11 1
13 1 3
13 2 5
13 3 1
13 4 4
13 5 2
13 6 3
13 7 3
13 10 1
13 12 3
14 0 5
14 1 2
14 3 4
14 6 1
14 9 5
14 12 5
14 13 3
